p cnf 22 8
a 1 2 0
e 3 4 5 0
a 6 7 0
e 8 0
a 9 0
e 10 11 12 0
a 13 0
e 14 15 0
a 16 17 18 0
e 19 0
a 20 21 0
e 22 0
1 8 10 22 0
-12 22 3 -5 0
-6 -18 -4 0
7 15 19 0
-22 -11 20 0
-22 13 -5 0
-6 -22 18 -21 16 0
7 -3 -1 -21 -11 0
